nbProcess=2;
nbJobs =2;
nbMchs =2;
Process1=[2,2];
pidle=[1,2];
EnergyS=[10,30];
TB=[10,15];
x=
[
[
[1,1,],
[1,0,],
],
[
[0,1,],
[1,1,],
],
];
ptime =
[
[
[43,64],
[21,0]
],
[
[0,71],
[35,43]
]
];
power1=
[
[
[4.9,4.9,],
[3.3,0,],
],
[
[0,4,],
[4.6,3.3,],
],
];